p cnf 88 252
-20 
21 
-22 
23 
-24 
25 
-26 
-27 
-28 
29 
30 
-31 
-13 
-19 
-14 1 13 
-14 1 7 
-14 7 13 
14 -1 -13 
14 -1 -7 
14 -7 -13 
-15 2 14 
-15 2 8 
-15 8 14 
15 -2 -14 
15 -2 -8 
15 -8 -14 
-16 3 15 
-16 3 9 
-16 9 15 
16 -3 -15 
16 -3 -9 
16 -9 -15 
-17 4 16 
-17 4 10 
-17 10 16 
17 -4 -16 
17 -4 -10 
17 -10 -16 
-18 5 17 
-18 5 11 
-18 11 17 
18 -5 -17 
18 -5 -11 
18 -11 -17 
-19 6 18 
-19 6 12 
-19 12 18 
19 -6 -18 
19 -6 -12 
19 -12 -18 
20 7 1 -13 
20 7 -1 13 
20 -7 1 13 
20 -7 -1 -13 
-20 7 1 13 
-20 7 -1 -13 
-20 -7 1 -13 
-20 -7 -1 13 
21 8 2 -14 
21 8 -2 14 
21 -8 2 14 
21 -8 -2 -14 
-21 8 2 14 
-21 8 -2 -14 
-21 -8 2 -14 
-21 -8 -2 14 
22 9 3 -15 
22 9 -3 15 
22 -9 3 15 
22 -9 -3 -15 
-22 9 3 15 
-22 9 -3 -15 
-22 -9 3 -15 
-22 -9 -3 15 
23 10 4 -16 
23 10 -4 16 
23 -10 4 16 
23 -10 -4 -16 
-23 10 4 16 
-23 10 -4 -16 
-23 -10 4 -16 
-23 -10 -4 16 
24 11 5 -17 
24 11 -5 17 
24 -11 5 17 
24 -11 -5 -17 
-24 11 5 17 
-24 11 -5 -17 
-24 -11 5 -17 
-24 -11 -5 17 
25 12 6 -18 
25 12 -6 18 
25 -12 6 18 
25 -12 -6 -18 
-25 12 6 18 
-25 12 -6 -18 
-25 -12 6 -18 
-25 -12 -6 18 
32 
-33 32 
-34 32 
-32 33 34 
35 -33 
6 -33 
33 -35 -6 
-12 -35 
12 35 
36 -34 
37 -34 
34 -36 -37 
38 -36 
39 -36 
36 -38 -39 
-40 38 
-6 38 
-38 40 6 
-12 -40 
12 40 
-12 39 
-41 39 
-39 12 41 
-6 -41 
6 41 
-42 37 
-43 37 
-37 42 43 
44 -42 
5 -42 
42 -44 -5 
-11 -44 
11 44 
45 -43 
46 -43 
43 -45 -46 
47 -45 
48 -45 
45 -47 -48 
-49 47 
-5 47 
-47 49 5 
-11 -49 
11 49 
-11 48 
-50 48 
-48 11 50 
-5 -50 
5 50 
-51 46 
-52 46 
-46 51 52 
53 -51 
4 -51 
51 -53 -4 
-10 -53 
10 53 
54 -52 
55 -52 
52 -54 -55 
56 -54 
57 -54 
54 -56 -57 
-58 56 
-4 56 
-56 58 4 
-10 -58 
10 58 
-10 57 
-59 57 
-57 10 59 
-4 -59 
4 59 
-60 55 
-61 55 
-55 60 61 
62 -60 
3 -60 
60 -62 -3 
-9 -62 
9 62 
63 -61 
64 -61 
61 -63 -64 
65 -63 
66 -63 
63 -65 -66 
-67 65 
-3 65 
-65 67 3 
-9 -67 
9 67 
-9 66 
-68 66 
-66 9 68 
-3 -68 
3 68 
-69 64 
-70 64 
-64 69 70 
71 -69 
2 -69 
69 -71 -2 
-8 -71 
8 71 
72 -70 
73 -70 
70 -72 -73 
74 -72 
75 -72 
72 -74 -75 
-76 74 
-2 74 
-74 76 2 
-8 -76 
8 76 
-8 75 
-77 75 
-75 8 77 
-2 -77 
2 77 
-78 73 
-79 73 
-73 78 79 
80 -78 
1 -78 
78 -80 -1 
-7 -80 
7 80 
81 -79 
82 -79 
79 -81 -82 
-83 81 
-1 81 
-81 83 1 
-7 -83 
7 83 
-7 82 
-84 82 
-82 7 84 
-1 -84 
1 84 
85 
5 -85 
86 -85 
85 -5 -86 
4 -86 
87 -86 
86 -4 -87 
-1 87 
-88 87 
-87 1 88 
-1 -88 
1 88 
